(set-info :smt-lib-version 2.6)
(set-logic QF_SLIA)
(set-info :source |
Generated by: Denghang Hu
Generated on: 2023-04-14
Application: Evaluate string solvers
Target solver: Ostrich, Z3str3, CVC5
Description: The instance consists of:
(1) a regular membership predicate from the real world
(2) a regular membership predicate to sanitize danger letters in javascript such as <,>,&,",'
(3) a lower bound for string length
|)
(set-info :license "https://creativecommons.org/licenses/by/4.0/")
(set-info :category "industrial")
(set-info :status unknown)
        ;test regex let regExpData = "(0[1-9]|1[0-9]|2[0-9]|3[01])-(0[1-9]|1[0-2])-(19|20|21)[0-9]{2}"
(declare-const X String)
(assert (str.in_re X (re.++ (str.to_re "l") (re.++ (str.to_re "e") (re.++ (str.to_re "t") (re.++ (str.to_re " ") (re.++ (str.to_re "r") (re.++ (str.to_re "e") (re.++ (str.to_re "g") (re.++ (str.to_re "E") (re.++ (str.to_re "x") (re.++ (str.to_re "p") (re.++ (str.to_re "D") (re.++ (str.to_re "a") (re.++ (str.to_re "t") (re.++ (str.to_re "a") (re.++ (str.to_re " ") (re.++ (str.to_re "=") (re.++ (str.to_re " ") (re.++ (str.to_re "\u{22}") (re.++ (re.union (re.union (re.union (re.++ (str.to_re "0") (re.range "1" "9")) (re.++ (str.to_re "1") (re.range "0" "9"))) (re.++ (str.to_re "2") (re.range "0" "9"))) (re.++ (str.to_re "3") (str.to_re "01"))) (re.++ (str.to_re "-") (re.++ (re.union (re.++ (str.to_re "0") (re.range "1" "9")) (re.++ (str.to_re "1") (re.range "0" "2"))) (re.++ (str.to_re "-") (re.++ (re.union (re.union (str.to_re "19") (str.to_re "20")) (str.to_re "21")) (re.++ ((_ re.loop 2 2) (re.range "0" "9")) (str.to_re "\u{22}")))))))))))))))))))))))))))
; sanitize danger characters:  < > ' " &
(assert (not (str.in_re X (re.++ re.all (re.union (str.to_re "\u{3c}") (str.to_re "\u{3e}") (str.to_re "\u{27}") (str.to_re "\u{22}") (str.to_re "\u{26}")) re.all))))
(assert (< 20 (str.len X)))
(check-sat)
(exit)
